<number of tasks>
20

<cycle time>
1000

<order strength>
0,195


<task times>
1 714
2 564
3 303
4 546
5 611
6 479
7 611
8 273
9 645
10 834
11 394
12 487
13 374
14 532
15 540
16 458
17 691
18 451
19 587
20 611

<precedence relations>
1,8
2,6
3,7
6,9
8,10
8,11
8,12
8,13
9,17
10,14
11,16
13,15
15,20
16,18
17,19

<end>
